c Instância derivada de trechos contínuos ao longo de uma trilha.
p edge 300 1102
e 1 35
e 1 54
e 1 109
e 1 172
e 1 190
e 1 202
e 1 295
e 2 43
e 2 64
e 2 95
e 2 130
e 2 182
e 2 192
e 2 270
e 2 275
e 3 46
e 3 121
e 3 191
e 3 217
e 3 235
e 3 278
e 4 6
e 4 11
e 4 36
e 4 99
e 4 123
e 4 140
e 4 150
e 4 153
e 4 159
e 4 170
e 4 204
e 4 227
e 4 253
e 4 257
e 4 265
e 4 266
e 4 273
e 4 288
e 4 292
e 5 63
e 5 128
e 5 185
e 5 219
e 5 274
e 6 36
e 6 78
e 6 132
e 6 159
e 6 170
e 6 265
e 6 273
e 6 286
e 6 288
e 6 292
e 7 50
e 7 72
e 7 97
e 7 106
e 7 113
e 7 177
e 7 186
e 7 213
e 7 231
e 7 261
e 7 264
e 7 279
e 8 35
e 8 83
e 8 93
e 8 109
e 8 282
e 8 295
e 9 55
e 9 111
e 9 119
e 9 145
e 9 160
e 9 167
e 9 207
e 9 258
e 9 274
e 9 297
e 10 52
e 10 169
e 10 203
e 11 32
e 11 36
e 11 99
e 11 123
e 11 140
e 11 150
e 11 153
e 11 204
e 11 227
e 11 253
e 11 257
e 11 266
e 11 273
e 11 292
e 12 52
e 12 87
e 12 96
e 12 203
e 12 221
e 12 225
e 13 62
e 13 210
e 13 226
e 13 281
e 14 28
e 14 88
e 14 147
e 14 237
e 14 243
e 15 155
e 15 256
e 16 24
e 16 101
e 16 151
e 16 238
e 17 21
e 17 26
e 17 148
e 17 176
e 17 194
e 17 200
e 17 220
e 17 249
e 17 291
e 18 38
e 18 42
e 18 77
e 18 90
e 18 98
e 18 126
e 18 165
e 18 244
e 18 294
e 19 48
e 19 69
e 19 74
e 19 100
e 19 110
e 19 156
e 19 193
e 19 240
e 19 247
e 19 280
e 20 114
e 20 143
e 20 197
e 20 201
e 20 242
e 20 272
e 20 285
e 21 26
e 21 61
e 21 148
e 21 176
e 21 194
e 21 200
e 21 220
e 21 249
e 21 276
e 21 291
e 22 33
e 22 48
e 22 60
e 22 105
e 22 248
e 22 296
e 23 50
e 23 106
e 23 178
e 23 276
e 23 290
e 24 101
e 24 151
e 24 238
e 24 255
e 25 108
e 25 127
e 25 163
e 25 177
e 25 231
e 25 264
e 25 267
e 26 143
e 26 173
e 26 176
e 26 200
e 26 220
e 26 272
e 26 285
e 26 291
e 27 39
e 27 58
e 27 73
e 27 75
e 27 82
e 27 187
e 27 212
e 27 233
e 27 239
e 28 243
e 28 260
e 28 283
e 29 128
e 29 133
e 29 142
e 29 185
e 29 219
e 30 55
e 31 112
e 31 223
e 32 47
e 32 59
e 32 99
e 32 123
e 32 150
e 32 153
e 32 227
e 32 253
e 32 257
e 32 268
e 32 271
e 33 48
e 33 60
e 33 296
e 34 116
e 34 181
e 35 83
e 35 93
e 35 109
e 35 202
e 35 282
e 35 295
e 36 78
e 36 123
e 36 132
e 36 140
e 36 159
e 36 170
e 36 204
e 36 265
e 36 266
e 36 273
e 36 288
e 36 292
e 37 51
e 37 115
e 37 245
e 38 77
e 38 90
e 38 126
e 38 165
e 38 244
e 38 294
e 39 58
e 39 65
e 39 73
e 39 75
e 39 180
e 39 187
e 39 212
e 39 228
e 39 239
e 40 49
e 40 67
e 40 70
e 40 135
e 40 158
e 40 197
e 40 201
e 41 53
e 41 92
e 41 115
e 41 118
e 41 234
e 42 77
e 42 79
e 42 90
e 42 165
e 42 294
e 43 57
e 43 64
e 43 82
e 43 95
e 43 162
e 43 233
e 43 275
e 44 169
e 44 183
e 44 211
e 44 246
e 44 262
e 44 269
e 45 141
e 45 149
e 45 218
e 45 222
e 45 236
e 45 278
e 45 300
e 46 121
e 46 137
e 46 191
e 46 217
e 46 222
e 46 236
e 46 252
e 46 278
e 47 59
e 47 153
e 47 227
e 47 248
e 47 257
e 47 268
e 47 271
e 48 60
e 48 74
e 48 110
e 48 240
e 48 296
e 49 67
e 49 70
e 49 76
e 49 104
e 49 135
e 49 158
e 49 201
e 49 232
e 50 72
e 50 106
e 50 178
e 50 186
e 50 194
e 50 213
e 50 249
e 50 261
e 50 276
e 50 290
e 51 115
e 51 208
e 51 245
e 52 87
e 52 96
e 52 169
e 52 203
e 53 86
e 53 92
e 53 118
e 53 154
e 53 234
e 53 254
e 54 66
e 54 84
e 54 172
e 54 190
e 54 196
e 54 202
e 54 295
e 54 298
e 55 145
e 55 297
e 56 76
e 56 104
e 56 158
e 56 251
e 57 82
e 57 95
e 57 162
e 57 233
e 57 239
e 58 75
e 58 180
e 58 187
e 58 212
e 58 239
e 59 99
e 59 150
e 59 153
e 59 227
e 59 257
e 59 268
e 59 271
e 60 105
e 60 189
e 60 248
e 60 296
e 61 148
e 61 194
e 61 249
e 61 276
e 62 210
e 62 226
e 62 281
e 63 111
e 63 128
e 63 146
e 63 185
e 63 219
e 63 258
e 63 274
e 64 95
e 64 182
e 64 192
e 64 270
e 64 275
e 65 68
e 65 75
e 65 120
e 65 125
e 65 136
e 65 180
e 65 187
e 65 208
e 65 212
e 65 228
e 65 239
e 65 287
e 66 84
e 66 124
e 66 129
e 66 172
e 66 179
e 66 190
e 66 196
e 66 199
e 66 218
e 66 284
e 66 298
e 67 135
e 67 158
e 68 75
e 68 120
e 68 125
e 68 136
e 68 180
e 68 187
e 68 208
e 68 212
e 68 228
e 68 287
e 69 71
e 69 156
e 69 193
e 69 240
e 69 247
e 69 280
e 69 289
e 70 197
e 70 201
e 71 144
e 71 175
e 71 193
e 71 247
e 71 260
e 71 280
e 71 283
e 71 289
e 72 97
e 72 106
e 72 113
e 72 178
e 72 186
e 72 213
e 72 261
e 72 264
e 72 279
e 73 82
e 73 239
e 74 110
e 74 240
e 75 120
e 75 125
e 75 180
e 75 187
e 75 208
e 75 212
e 75 228
e 75 239
e 75 287
e 76 104
e 76 158
e 76 232
e 76 251
e 77 90
e 77 98
e 77 126
e 77 165
e 77 244
e 77 294
e 78 132
e 78 159
e 78 170
e 78 265
e 78 286
e 79 90
e 79 255
e 79 294
e 80 130
e 80 139
e 80 259
e 80 293
e 81 91
e 81 107
e 81 131
e 81 138
e 81 164
e 81 174
e 81 184
e 81 230
e 81 250
e 81 263
e 81 277
e 81 282
e 82 95
e 82 162
e 82 233
e 82 239
e 83 93
e 83 109
e 83 282
e 83 295
e 84 124
e 84 129
e 84 179
e 84 190
e 84 196
e 84 199
e 84 218
e 84 284
e 84 298
e 85 166
e 85 171
e 85 188
e 86 94
e 86 154
e 86 234
e 86 254
e 87 96
e 87 203
e 87 221
e 87 225
e 88 147
e 88 157
e 88 237
e 89 94
e 89 198
e 89 205
e 89 254
e 90 98
e 90 126
e 90 165
e 90 244
e 90 294
e 91 107
e 91 131
e 91 138
e 91 174
e 91 184
e 91 250
e 92 115
e 92 118
e 92 234
e 92 245
e 93 109
e 93 282
e 93 295
e 94 154
e 94 198
e 94 205
e 94 234
e 94 254
e 95 162
e 95 182
e 95 192
e 95 275
e 96 203
e 96 221
e 96 225
e 97 213
e 97 264
e 98 112
e 98 126
e 98 165
e 98 223
e 98 244
e 98 294
e 99 123
e 99 140
e 99 150
e 99 153
e 99 227
e 99 253
e 99 257
e 99 266
e 99 292
e 100 110
e 100 156
e 100 193
e 100 240
e 100 280
e 101 151
e 101 238
e 101 255
e 102 152
e 103 155
e 103 224
e 103 235
e 103 256
e 104 158
e 104 232
e 104 251
e 105 189
e 105 215
e 105 248
e 105 296
e 106 113
e 106 178
e 106 186
e 106 213
e 106 261
e 106 276
e 106 279
e 107 138
e 107 164
e 107 174
e 107 206
e 107 263
e 108 127
e 108 163
e 108 177
e 108 231
e 108 264
e 108 267
e 109 172
e 109 202
e 109 282
e 109 295
e 110 240
e 111 119
e 111 145
e 111 146
e 111 160
e 111 167
e 111 207
e 111 219
e 111 258
e 111 274
e 111 297
e 112 165
e 112 223
e 112 244
e 113 186
e 113 213
e 113 261
e 113 279
e 114 143
e 114 173
e 114 197
e 114 201
e 114 242
e 114 272
e 114 285
e 115 118
e 115 208
e 115 234
e 115 245
e 116 122
e 116 181
e 117 251
e 118 234
e 118 245
e 119 145
e 119 146
e 119 160
e 119 167
e 119 207
e 119 258
e 119 274
e 119 297
e 120 125
e 120 180
e 120 187
e 120 208
e 120 212
e 120 228
e 120 287
e 121 137
e 121 191
e 121 217
e 121 252
e 121 278
e 122 181
e 123 140
e 123 150
e 123 153
e 123 204
e 123 227
e 123 253
e 123 257
e 123 266
e 123 273
e 123 292
e 124 129
e 124 179
e 124 190
e 124 196
e 124 199
e 124 218
e 124 284
e 124 298
e 125 136
e 125 180
e 125 208
e 125 212
e 125 228
e 125 287
e 126 165
e 126 244
e 126 294
e 127 163
e 127 177
e 127 231
e 127 264
e 128 133
e 128 142
e 128 185
e 128 219
e 128 258
e 128 274
e 129 179
e 129 196
e 129 199
e 129 218
e 129 284
e 130 182
e 130 192
e 130 259
e 130 270
e 130 293
e 131 138
e 131 174
e 131 184
e 131 230
e 131 250
e 131 277
e 131 282
e 132 265
e 132 286
e 133 142
e 133 185
e 133 219
e 134 163
e 134 195
e 134 206
e 134 267
e 135 158
e 136 208
e 136 287
e 137 191
e 137 217
e 137 236
e 137 252
e 137 278
e 138 164
e 138 174
e 138 206
e 138 250
e 138 263
e 139 171
e 139 188
e 139 293
e 140 150
e 140 153
e 140 204
e 140 227
e 140 253
e 140 257
e 140 266
e 140 273
e 140 292
e 141 149
e 141 199
e 141 218
e 141 222
e 141 300
e 142 185
e 142 219
e 143 173
e 143 176
e 143 242
e 143 272
e 143 285
e 143 291
e 144 175
e 144 243
e 144 247
e 144 260
e 144 280
e 144 283
e 144 289
e 145 207
e 145 297
e 146 160
e 146 219
e 146 258
e 146 274
e 147 157
e 147 237
e 148 176
e 148 194
e 148 220
e 148 249
e 148 276
e 148 291
e 149 218
e 149 222
e 149 300
e 150 153
e 150 204
e 150 227
e 150 253
e 150 257
e 150 266
e 150 268
e 150 271
e 150 273
e 150 292
e 151 238
e 151 255
e 153 227
e 153 248
e 153 253
e 153 257
e 153 266
e 153 268
e 153 271
e 154 198
e 154 234
e 154 254
e 155 224
e 155 235
e 155 256
e 156 193
e 156 240
e 156 247
e 156 280
e 157 237
e 158 232
e 158 251
e 159 170
e 159 265
e 159 273
e 159 288
e 159 292
e 160 167
e 160 207
e 160 258
e 160 274
e 160 297
e 161 168
e 161 209
e 161 214
e 161 216
e 162 233
e 163 177
e 163 195
e 163 206
e 163 231
e 163 264
e 163 267
e 164 174
e 164 206
e 164 263
e 165 223
e 165 244
e 165 294
e 166 188
e 167 207
e 167 258
e 167 274
e 167 297
e 168 209
e 168 214
e 168 216
e 168 286
e 169 183
e 169 229
e 169 246
e 169 269
e 170 265
e 170 273
e 170 288
e 170 292
e 171 188
e 172 190
e 172 202
e 172 295
e 172 298
e 173 176
e 173 200
e 173 220
e 173 272
e 173 285
e 173 291
e 174 263
e 175 260
e 175 283
e 176 200
e 176 220
e 176 272
e 176 285
e 176 291
e 177 231
e 177 264
e 177 267
e 178 194
e 178 213
e 178 249
e 178 276
e 178 290
e 179 196
e 179 199
e 179 218
e 179 284
e 179 298
e 180 187
e 180 208
e 180 212
e 180 228
e 180 239
e 181 188
e 182 192
e 182 259
e 182 270
e 183 229
e 183 269
e 184 230
e 184 250
e 184 277
e 184 282
e 185 219
e 185 274
e 186 213
e 186 261
e 186 279
e 187 208
e 187 212
e 187 228
e 187 239
e 189 215
e 189 248
e 189 268
e 190 196
e 190 202
e 190 284
e 190 295
e 190 298
e 191 217
e 191 252
e 191 278
e 192 270
e 193 240
e 193 247
e 193 280
e 193 289
e 194 249
e 194 276
e 194 290
e 195 206
e 195 267
e 196 199
e 196 218
e 196 284
e 196 298
e 197 201
e 198 205
e 198 254
e 199 218
e 199 284
e 199 300
e 200 220
e 200 291
e 202 295
e 202 298
e 203 221
e 203 225
e 204 266
e 204 273
e 204 292
e 207 258
e 207 274
e 207 297
e 208 212
e 208 228
e 208 287
e 209 214
e 209 216
e 210 226
e 211 246
e 211 262
e 211 299
e 212 228
e 212 239
e 213 261
e 213 264
e 213 279
e 215 248
e 215 268
e 216 241
e 217 235
e 217 252
e 217 278
e 218 284
e 218 300
e 219 258
e 219 274
e 220 291
e 221 225
e 222 236
e 222 252
e 222 278
e 222 300
e 223 244
e 224 235
e 224 256
e 227 253
e 227 257
e 227 266
e 227 268
e 227 271
e 227 292
e 228 239
e 228 287
e 229 269
e 230 250
e 230 277
e 230 282
e 231 264
e 231 267
e 232 251
e 233 239
e 234 254
e 235 256
e 236 252
e 236 278
e 240 280
e 242 272
e 242 285
e 243 260
e 243 283
e 244 294
e 246 262
e 246 269
e 246 299
e 247 280
e 247 283
e 247 289
e 248 268
e 248 271
e 248 296
e 249 276
e 249 290
e 250 277
e 250 282
e 252 278
e 253 257
e 253 266
e 255 294
e 257 266
e 257 268
e 257 271
e 257 292
e 258 274
e 260 283
e 261 279
e 262 299
e 265 273
e 265 288
e 265 292
e 266 273
e 266 292
e 268 271
e 272 285
e 272 291
e 273 288
e 273 292
e 274 297
e 276 290
e 277 282
e 280 283
e 280 289
e 282 295
e 283 289
e 284 298
e 285 291
e 288 292
e 295 298
